40 123
5 12 13 18 26 29
8 20 22 24 25 36
15 19 36 38
6 7 24 36
24 31 32
0 6 7 10 20 33 38 39
3 5 15 21 35 37
3 5 16 17 23 25 26 31 35
1 12 17 22 34
21 23 26 34 38
5 23 24 37 39
14 23 33 38
0 8 19 23 24 35
0 15 17 26 27 30
11 31 34
2 6 13 18 24 31 32 39
7 28 34 36 38
7 8 13 20 29 31
0 15 19 21 26 28 30 34 37
2 12 18 26 37
1 5 17 21 26
6 9 18 20 22 24
1 8 21 36 38 39
7 9 10 11 12 24 26 37 38
1 3 4 10 12 15 21 23 28 35 36
1 7 26 27 28 33 39
0 7 9 13 18 19 20 23 25 32 33 35 37
13 25
16 18 24 25 33 37 38 39
0 17
13 18 33
4 7 14 15 17 37
4 15 26
5 11 25 26 28 30 37
8 9 14 16 18
6 7 12 24 26 37 38
1 2 3 16 22 24
6 10 18 19 23 26 28 31 33 35
2 5 9 11 16 22 23 28 35 39
5 10 15 22 25 28 38
